100
32
28
23
14
19
14
6
27
8
1
20
10
6
2
2
9
27
6
19
1
16
1
5
3
1
3
3
1
1
3
21
19
1
20
2
1
5
4
18
1
1
1
5
1
1
17
1
1
3
4
1
2
2
1
1
1
1
17
3
6
1
3
1
18
3
2
1
1
2
2
1
1
17
1
2
1
3
3
1
1
17
1
1
3
8
4
1
3
1
1
2
18
2
7
2
1
2
3
1
1
2